s td 32 14 45
b 1 3 45
b 2 17 32
b 3 1 15 16
b 4 5 25 35
b 5 13 14 19
b 6 21 30 39
b 7 26 37 38
b 8 12 16 42 44
b 9 2 6 8 13 22 23 29 30 34 35 36 39 40 42
b 10 6 8 13 22 23 29 30 34 35 36 38 39 40 42
b 11 6 8 13 22 27 29 35 36 38 39 40 42
b 12 6 8 13 22 27 35 36 39 42 43
b 13 6 8 11 13 22 27 39 42 43
b 14 4 6 11 13 43
b 15 27 39 41 43
b 16 6 8 26 29 30 34 36 38 42
b 17 8 10 26 29 30 42
b 18 13 22 23 24 35 36 38 40 42
b 19 18 22 23 24 35 36 42
b 20 18 23 24 25 35 42
b 21 13 24 31 36 38 40
b 22 8 32 34 35 38
b 23 2 6 8 13 15 22 23 29 30 34 35 39 40 42
b 24 2 8 13 15 19 22 23 29 30 34 35 39 42
b 25 2 8 15 16 19 22 23 29 34 35 39 42
b 26 2 7 8 16 19 23 29 34 35 39 42
b 27 7 16 19 23 29 34 35 39 42 44
b 28 8 9 16 19 22 23 29 34 35 39
b 29 8 9 19 23 29 35 39 45
b 30 8 19 20 23 39 45
b 31 23 33 39 42
b 32 28
1 29
1 32
2 22
3 25
4 20
5 24
6 9
7 16
8 27
9 10
9 23
9 31
10 11
10 16
10 18
10 22
11 12
12 13
12 15
13 14
16 17
18 19
18 21
19 20
23 24
24 25
25 26
25 28
26 27
28 29
29 30
